0 0 0 0
0 1 0 0
0 2 0 0
0 3 0 0
0 4 1 2
0 5 2 3
0 6 0 21
0 7 0 5
0 8 0 19
0 9 0 8
0 10 0 11
0 11 1 11
0 12 0 13
0 13 0 15
0 14 0 17
0 15 0 14
0 16 0 14
0 17 0 19
0 18 2 19
0 19 0 22
0 20 0 23
0 21 2 26
0 22 1 23
0 23 0 18
0 24 0 23
0 25 0 29
0 26 0 29
0 27 0 31
0 28 0 32
0 29 0 33
0 30 0 24
0 31 0 36
